qbf_easy_train/easy_5948_UNSAT.qdimacs
p cnf 21 47
a 16 4 7 0
e 1 2 3 5 6 8 9 10 11 12 13 14 15 17 18 19 20 21 0
-2 -3 -4 0
2 3 -4 0
-2 3 4 0
2 -3 4 0
-7 -5 0
-7 -6 0
5 6 7 0
-8 -4 0
-8 -7 0
4 7 8 0
-9 -1 0
-9 8 0
1 -8 9 0
-10 -6 0
-10 3 0
6 -3 10 0
-11 9 0
-11 -10 0
-9 10 11 0
5 12 -13 0
-5 -12 -13 0
5 -12 13 0
-5 12 13 0
14 11 0
14 -13 0
-11 13 -14 0
-16 15 0
-16 6 0
-15 -6 16 0
-17 -7 -18 0
17 7 -18 0
-17 7 18 0
17 -7 18 0
19 -1 0
19 -18 0
1 18 -19 0
20 -16 0
20 19 0
16 -19 -20 0
21 14 0
21 20 0
-14 -20 -21 0
1 -19 16 -9 -4 21 -12 0
11 12 -21 10 6 14 0
-20 4 2 17 -6 11 0
12 -20 15 -9 13 0
21 0
