sat_easy_train/easy_5948_UNSAT.dimacs
p cnf 143 483
-3 -1 0
-3 -2 0
1 2 3 0
4 3 0
4 1 0
-3 -1 -4 0
-6 4 0
-6 5 0
-4 -5 6 0
-10 -9 0
-10 -7 0
9 7 10 0
-11 -3 0
-11 -10 0
3 10 11 0
8 -11 -12 0
-8 11 -12 0
8 11 12 0
-8 -11 12 0
13 7 0
13 -12 0
-7 12 -13 0
6 -13 -14 0
-6 13 -14 0
6 13 14 0
-6 -13 14 0
16 10 0
16 -15 0
-10 15 -16 0
18 16 0
18 17 0
-16 -17 -18 0
-19 5 0
-19 -5 0
-20 19 0
-20 1 0
-19 -1 20 0
21 18 0
21 -20 0
-18 20 -21 0
-14 21 -22 0
14 -21 -22 0
-14 -21 22 0
14 21 22 0
1 4 -23 0
-1 -4 -23 0
1 -4 23 0
-1 4 23 0
24 23 0
24 -5 0
-23 5 -24 0
-27 25 0
-27 -26 0
-25 26 27 0
28 -24 0
28 -27 0
24 27 -28 0
25 -11 -29 0
-25 11 -29 0
25 11 29 0
-25 -11 29 0
-29 -17 -30 0
29 17 -30 0
-29 17 30 0
29 -17 30 0
-30 3 -31 0
30 -3 -31 0
-30 -3 31 0
30 3 31 0
33 -3 0
33 32 0
3 -32 -33 0
34 31 0
34 -33 0
-31 33 -34 0
28 34 -35 0
-28 -34 -35 0
28 -34 35 0
-28 34 35 0
-22 35 -36 0
22 -35 -36 0
-22 -35 36 0
22 35 36 0
-38 37 0
-38 -8 0
-37 8 38 0
39 11 0
39 38 0
-11 -38 -39 0
40 39 0
40 -39 0
-15 40 -41 0
15 -40 -41 0
-15 -40 41 0
15 40 41 0
-43 -32 0
-43 42 0
32 -42 43 0
44 -43 0
44 32 0
43 -32 -44 0
-45 44 0
-45 32 0
-44 -32 45 0
41 -45 -46 0
-41 45 -46 0
41 45 46 0
-41 -45 46 0
47 -39 0
47 -14 0
39 14 -47 0
-19 8 -48 0
19 -8 -48 0
-19 -8 48 0
19 8 48 0
49 -5 0
49 48 0
5 -48 -49 0
50 19 0
50 -4 0
-19 4 -50 0
-49 -50 -51 0
49 50 -51 0
-49 50 51 0
49 -50 51 0
-52 17 0
-52 51 0
-17 -51 52 0
-53 -12 0
-53 -1 0
12 1 53 0
54 2 0
54 -37 0
-2 37 -54 0
-54 48 -55 0
54 -48 -55 0
-54 -48 55 0
54 48 55 0
56 53 0
56 -55 0
-53 55 -56 0
57 52 0
57 -56 0
-52 56 -57 0
-47 -57 -58 0
47 57 -58 0
-47 57 58 0
47 -57 58 0
-46 -58 -59 0
46 58 -59 0
-46 58 59 0
46 -58 59 0
36 -59 -60 0
-36 59 -60 0
36 59 60 0
-36 -59 60 0
-61 26 0
-61 -19 0
-26 19 61 0
-1 -5 -62 0
1 5 -62 0
-1 5 62 0
1 -5 62 0
-63 61 0
-63 -62 0
-61 62 63 0
64 -50 0
64 -1 0
50 1 -64 0
-63 64 -65 0
63 -64 -65 0
-63 -64 65 0
63 64 65 0
-66 48 0
-66 39 0
-48 -39 66 0
67 -65 0
67 -66 0
65 66 -67 0
-60 -67 -68 0
60 67 -68 0
-60 67 68 0
60 -67 68 0
70 -11 0
70 69 0
11 -69 -70 0
71 25 0
71 -70 0
-25 70 -71 0
-72 -71 0
-72 -50 0
71 50 72 0
-73 72 0
-73 8 0
-72 -8 73 0
-74 73 0
-74 -8 0
-73 8 74 0
37 -42 -75 0
-37 42 -75 0
37 42 75 0
-37 -42 75 0
-76 75 0
-76 69 0
-75 -69 76 0
77 -51 0
77 15 0
51 -15 -77 0
-78 -17 0
-78 -77 0
17 77 78 0
10 -69 -79 0
-10 69 -79 0
10 69 79 0
-10 -69 79 0
-80 -8 0
-80 40 0
8 -40 80 0
81 -79 0
81 -80 0
79 80 -81 0
82 78 0
82 81 0
-78 -81 -82 0
83 -76 0
83 -82 0
76 82 -83 0
-84 62 0
-84 40 0
-62 -40 84 0
86 72 0
86 85 0
-72 -85 -86 0
-86 -27 -87 0
86 27 -87 0
-86 27 87 0
86 -27 87 0
27 10 -88 0
-27 -10 -88 0
27 -10 88 0
-27 10 88 0
87 88 -89 0
-87 -88 -89 0
87 -88 89 0
-87 88 89 0
-90 -13 0
-90 -17 0
13 17 90 0
91 -49 0
91 90 0
49 -90 -91 0
-92 -89 0
-92 91 0
89 -91 92 0
-93 -17 0
-93 44 0
17 -44 93 0
94 -1 0
94 32 0
1 -32 -94 0
-95 -94 0
-95 19 0
94 -19 95 0
96 -93 0
96 -95 0
93 95 -96 0
-92 -96 -97 0
92 96 -97 0
-92 96 97 0
92 -96 97 0
84 97 -98 0
-84 -97 -98 0
84 -97 98 0
-84 97 98 0
-99 -17 0
-99 75 0
17 -75 99 0
100 75 0
100 -77 0
-75 77 -100 0
-101 100 0
-101 9 0
-100 -9 101 0
102 -101 0
102 9 0
101 -9 -102 0
-103 -99 0
-103 -102 0
99 102 103 0
104 -37 0
104 37 0
-105 18 0
-105 104 0
-18 -104 105 0
105 -99 -106 0
-105 99 -106 0
105 99 106 0
-105 -99 106 0
-107 103 0
-107 -106 0
-103 106 107 0
-98 107 -108 0
98 -107 -108 0
-98 -107 108 0
98 107 108 0
109 -83 0
109 108 0
83 -108 -109 0
110 -74 0
110 -109 0
74 109 -110 0
30 7 -111 0
-30 -7 -111 0
30 -7 111 0
-30 7 111 0
-37 101 -112 0
37 -101 -112 0
-37 -101 112 0
37 101 112 0
113 -111 0
113 -112 0
111 112 -113 0
114 72 0
114 -16 0
-72 16 -114 0
115 -77 0
115 -61 0
77 61 -115 0
-114 115 -116 0
114 -115 -116 0
-114 -115 116 0
114 115 116 0
11 20 -117 0
-11 -20 -117 0
11 -20 117 0
-11 20 117 0
-117 -7 -118 0
117 7 -118 0
-117 7 118 0
117 -7 118 0
-119 -42 0
-119 9 0
42 -9 119 0
-120 -119 0
-120 70 0
119 -70 120 0
121 104 0
121 38 0
-104 -38 -121 0
-44 -121 -122 0
44 121 -122 0
-44 121 122 0
44 -121 122 0
123 -4 0
123 29 0
4 -29 -123 0
124 88 0
124 -48 0
-88 48 -124 0
-125 -123 0
-125 124 0
123 -124 125 0
-126 -12 0
-126 -32 0
12 32 126 0
-127 -125 0
-127 126 0
125 -126 127 0
-122 127 -128 0
122 -127 -128 0
-122 -127 128 0
122 127 128 0
-120 128 -129 0
120 -128 -129 0
-120 -128 129 0
120 128 129 0
-130 118 0
-130 129 0
-118 -129 130 0
-131 61 0
-131 -12 0
-61 12 131 0
-133 86 0
-133 -132 0
-86 132 133 0
25 -38 -134 0
-25 38 -134 0
25 38 134 0
-25 -38 134 0
135 -133 0
135 134 0
133 -134 -135 0
-75 -77 -136 0
75 77 -136 0
-75 77 136 0
75 -77 136 0
-137 135 0
-137 -136 0
-135 136 137 0
-138 -131 0
-138 137 0
131 -137 138 0
130 -138 -139 0
-130 138 -139 0
130 138 139 0
-130 -138 139 0
140 116 0
140 139 0
-116 -139 -140 0
141 113 0
141 -140 0
-113 140 -141 0
-110 141 -142 0
110 -141 -142 0
-110 -141 142 0
110 141 142 0
-143 -68 0
-143 142 0
68 -142 143 0
131 37 0
-35 102 0
47 -7 58 -87 0
82 68 -127 -131 -28 0
-106 35 0
-114 72 -96 130 -3 106 0
-110 139 0
140 63 -52 0
113 1 -101 -129 -76 130 0
72 142 -2 -127 0
66 63 -111 0
92 -27 54 0
-75 113 0
71 51 133 46 0
-62 45 19 68 63 0
-112 -89 35 -78 142 0
-102 11 0
-141 65 0
74 61 -96 0
91 68 113 -46 0
-137 -18 -67 0
46 -22 125 30 127 0
-31 109 -76 49 0
-79 26 0
1 -63 0
-33 141 -131 -30 0
-68 36 96 55 0
68 79 0
13 109 44 -111 -123 -10 0
-119 -56 -53 -9 39 -121 0
70 -18 -74 -94 -108 87 0
-69 34 -131 28 130 0
103 -46 95 -63 44 0
92 26 21 0
-30 71 -103 -136 0
-14 110 -91 -27 0
75 89 33 -66 39 0
-125 -22 -66 -73 -50 0
-33 78 14 -4 92 109 0
85 -122 -104 0
35 2 -38 99 0
60 -16 0
-17 97 -51 0
-110 21 -82 0
-39 17 22 0
61 18 29 37 0
-98 38 -67 114 -13 0
-1 -45 -11 -61 118 0
-64 -66 0
-122 -113 105 50 -137 0
-57 129 18 125 -30 36 0
136 117 0
104 22 -85 0
21 85 101 0
89 -90 102 -135 46 0
113 130 102 0
107 121 -106 -89 0
61 5 112 0
93 -7 26 0
-112 -42 -50 0
39 50 0
108 67 120 0
-74 -52 49 -27 22 112 0
143 0
